(declare-const delta_j Int)
(declare-const delta_tmp___0 Int)
(declare-const delta_i Int)
(assert (exists
         ((|tmp___0'?1| Int) (|j'?2| Int) (|i'?3| Int) (phi_j?4 Int)
            (havoc?5 Int) (j?6 Int) (i?7 Int) (tmp___0?8 Int))
         (and (< (- j?6) 0) (<= (- i?7) 0) (or (< havoc?5 0) (< 0 havoc?5))
                (or (and (= (mod (+ i?7 2) 2) 0) (= (+ (- phi_j?4) j?6 2) 0))
                      (and (or (< (mod (+ i?7 2) 2) 0)
                                 (< 0 (mod (+ i?7 2) 2)))
                             (= (+ (- phi_j?4) j?6 1) 0)))
                (= (+ |tmp___0'?1| (- havoc?5)) 0)
                (= (+ |j'?2| (- phi_j?4)) 0) (= (+ |i'?3| (- i?7) -2) 0)
                (= delta_i (+ |i'?3| (- i?7))) (= delta_j (+ |j'?2| (- j?6)))
                (= delta_tmp___0 (+ |tmp___0'?1| (- tmp___0?8))))))
(check-sat)
